(set-logic UF)
(declare-sort Loc 0)
(declare-sort SetLoc 0)
(declare-sort FldBool 0)
(declare-sort FldLoc 0)
(declare-fun null$0 () Loc)
(declare-fun read$0 (FldLoc Loc) Loc)
(declare-fun ep$0 (FldLoc SetLoc Loc) Loc)
(declare-fun emptyset$0 () SetLoc)
(declare-fun setenum$0 (Loc) SetLoc)
(declare-fun union$0 (SetLoc SetLoc) SetLoc)
(declare-fun intersection$0 (SetLoc SetLoc) SetLoc)
(declare-fun setminus$0 (SetLoc SetLoc) SetLoc)
(declare-fun Btwn$0 (FldLoc Loc Loc Loc) Bool)
(declare-fun in$0 (Loc SetLoc) Bool)
(declare-fun Alloc$0 () SetLoc)
(declare-fun FP$0 () SetLoc)
(declare-fun FP_Caller$0 () SetLoc)
(declare-fun FP_Caller_2$0 () SetLoc)
(declare-fun X$0 () SetLoc)
(declare-fun lseg_set_X$0 (FldLoc Loc Loc) SetLoc)
(declare-fun lseg_set_domain$0 (FldLoc Loc Loc) SetLoc)
(declare-fun lseg_set_struct$0 (SetLoc FldLoc Loc Loc SetLoc) Bool)
(declare-fun next$0 () FldLoc)
(declare-fun root_x$0 () Loc)
(declare-fun sk_?X_2$0 () SetLoc)
(declare-fun sk_?X_3$0 () SetLoc)
(declare-fun sk_?X_4$0 () SetLoc)
(declare-fun sk_?X_5$0 () SetLoc)
(declare-fun x$0 () Loc)
(assert (not (not (forall ((?f FldLoc) (?u Loc) (?x Loc) (?y Loc) (?z Loc)) (or (not (Btwn$0 ?f ?x ?y ?z)) (not (Btwn$0 ?f ?y ?u ?z)) (and (Btwn$0 ?f ?x ?y ?u) (Btwn$0 ?f ?x ?u ?z)))))))
(assert (not (or (not (Btwn$0 next$0 x$0 x$0 x$0)) (not (Btwn$0 next$0 x$0 root_x$0 x$0)) (and (Btwn$0 next$0 x$0 x$0 root_x$0) (Btwn$0 next$0 x$0 root_x$0 x$0)))))
(assert (or (not (forall ((?f FldLoc) (?u Loc) (?x Loc) (?y Loc) (?z Loc)) (or (not (Btwn$0 ?f ?x ?y ?z)) (not (Btwn$0 ?f ?y ?u ?z)) (and (Btwn$0 ?f ?x ?y ?u) (Btwn$0 ?f ?x ?u ?z))))) (or (not (Btwn$0 next$0 x$0 x$0 x$0)) (not (Btwn$0 next$0 x$0 root_x$0 x$0)) (and (Btwn$0 next$0 x$0 x$0 root_x$0) (Btwn$0 next$0 x$0 root_x$0 x$0)))))
(check-sat)
(exit)
